1395981
0 19 273608
19 18 195760
18 21 208415
21 25 10978
25 10 29145
10 15 191643
15 28 103045
28 13 294869
13 4 168736
4 12 191715
12 24 288674
24 17 258586
17 3 19482
3 8 42116
8 27 64773
27 1 181927
1 29 157147
29 5 44182
5 14 59143
14 20 93238
20 22 71532
22 2 146690
2 6 340221
6 26 295738
26 7 23242
7 11 235606
11 9 205939
9 16 52270
16 23 57184
23 0 279812